(set-info :smt-lib-version 2.6)
(set-logic UF)
(set-info :source |Benchmarks from the paper: "Extending Sledgehammer with SMT Solvers" by Jasmin Blanchette, Sascha Bohme, and Lawrence C. Paulson, CADE 2011.  Translated to SMT2 by Andrew Reynolds and Morgan Deters.|)
(set-info :category "industrial")
(set-info :status sat)
(declare-sort S1 0)
(declare-sort S2 0)
(declare-sort S3 0)
(declare-sort S4 0)
(declare-sort S5 0)
(declare-sort S6 0)
(declare-sort S7 0)
(declare-sort S8 0)
(declare-sort S9 0)
(declare-sort S10 0)
(declare-sort S11 0)
(declare-sort S12 0)
(declare-sort S13 0)
(declare-sort S14 0)
(declare-sort S15 0)
(declare-sort S16 0)
(declare-sort S17 0)
(declare-sort S18 0)
(declare-sort S19 0)
(declare-sort S20 0)
(declare-sort S21 0)
(declare-sort S22 0)
(declare-sort S23 0)
(declare-sort S24 0)
(declare-sort S25 0)
(declare-sort S26 0)
(declare-sort S27 0)
(declare-sort S28 0)
(declare-sort S29 0)
(declare-sort S30 0)
(declare-sort S31 0)
(declare-sort S32 0)
(declare-sort S33 0)
(declare-sort S34 0)
(declare-sort S35 0)
(declare-sort S36 0)
(declare-fun f1 () S1)
(declare-fun f2 () S1)
(declare-fun f3 (S3 S2) S4)
(declare-fun f4 () S3)
(declare-fun f5 (S5 S4) S4)
(declare-fun f6 (S6 S4) S5)
(declare-fun f7 () S6)
(declare-fun f8 () S6)
(declare-fun f9 (S7 S4) S3)
(declare-fun f10 () S7)
(declare-fun f11 () S4)
(declare-fun f12 () S3)
(declare-fun f13 (S8 S2) S2)
(declare-fun f14 (S9 S2) S8)
(declare-fun f15 () S9)
(declare-fun f16 (S10 S11) S2)
(declare-fun f17 () S10)
(declare-fun f18 (S12 S11) S11)
(declare-fun f19 () S12)
(declare-fun f20 () S12)
(declare-fun f21 () S11)
(declare-fun f22 () S2)
(declare-fun f23 () S2)
(declare-fun f24 () S3)
(declare-fun f25 () S8)
(declare-fun f26 () S3)
(declare-fun f27 () S9)
(declare-fun f28 () S2)
(declare-fun f29 () S3)
(declare-fun f30 () S3)
(declare-fun f31 () S3)
(declare-fun f32 (S13 S2) S3)
(declare-fun f33 (S14 S3) S13)
(declare-fun f34 (S15 S2) S14)
(declare-fun f35 () S15)
(declare-fun f36 () S15)
(declare-fun f37 (S16 S17) S4)
(declare-fun f38 (S18 S3) S16)
(declare-fun f39 () S18)
(declare-fun f40 (S2 S2) S17)
(declare-fun f41 () S2)
(declare-fun f42 (S19 S3) S3)
(declare-fun f43 (S20 S2) S19)
(declare-fun f44 () S20)
(declare-fun f45 (S21 S2) S11)
(declare-fun f46 (S22 S11) S21)
(declare-fun f47 () S22)
(declare-fun f48 (S23 S11) S12)
(declare-fun f49 () S23)
(declare-fun f50 (S25 S2) S24)
(declare-fun f51 (S26 S24) S25)
(declare-fun f52 () S26)
(declare-fun f53 (S27 S24) S24)
(declare-fun f54 (S28 S24) S27)
(declare-fun f55 () S28)
(declare-fun f56 () S9)
(declare-fun f57 () S12)
(declare-fun f58 (S29 S11) S24)
(declare-fun f59 () S29)
(declare-fun f60 (S30 S11) S4)
(declare-fun f61 () S30)
(declare-fun f62 () S11)
(declare-fun f63 () S24)
(declare-fun f64 () S4)
(declare-fun f65 () S11)
(declare-fun f66 () S24)
(declare-fun f67 (S31 S17) S11)
(declare-fun f68 (S32 S21) S31)
(declare-fun f69 () S32)
(declare-fun f70 (S33 S17) S2)
(declare-fun f71 (S34 S8) S33)
(declare-fun f72 () S34)
(declare-fun f73 (S35 S17) S24)
(declare-fun f74 (S36 S25) S35)
(declare-fun f75 () S36)
(declare-fun f76 () S20)
(declare-fun f77 () S6)
(declare-fun f78 () S28)
(declare-fun f79 () S23)
(declare-fun f80 () S28)
(assert (not (= f1 f2)))
(assert (forall ((?v0 S2)) (let ((?v_0 (f14 f15 (f16 f17 (f18 f19 (f18 f20 f21)))))) (= (f3 f4 ?v0) (f5 (f6 f7 (f5 (f6 f8 (f3 (f9 f10 (f5 (f6 f7 f11) (f3 f12 (f13 ?v_0 f22)))) f23)) (f3 f24 (f13 f25 (f13 ?v_0 ?v0))))) (f3 (f9 f10 (f3 f12 f22)) (f13 (f14 f15 f23) ?v0)))))))
(assert (forall ((?v0 S2)) (let ((?v_0 (f14 f15 (f16 f17 (f18 f19 (f18 f20 f21)))))) (let ((?v_1 (f13 (f14 f27 (f13 ?v_0 ?v0)) f28))) (= (f3 f26 ?v0) (f5 (f6 f7 (f3 f24 ?v_1)) (f3 (f9 f10 (f3 f12 (f13 ?v_0 f22))) (f13 (f14 f15 f23) ?v_1))))))))
(assert (forall ((?v0 S2)) (let ((?v_0 (f14 f15 (f16 f17 (f18 f19 (f18 f20 f21)))))) (let ((?v_1 (f13 ?v_0 ?v0))) (= (f3 f29 ?v0) (f5 (f6 f7 (f3 f24 ?v_1)) (f3 (f9 f10 (f3 f12 (f13 ?v_0 f22))) (f13 (f14 f15 f23) ?v_1))))))))
(assert (forall ((?v0 S2)) (let ((?v_0 (f14 f15 (f16 f17 (f18 f19 (f18 f20 f21)))))) (let ((?v_1 (f9 f10 (f3 f12 (f13 ?v_0 f22)))) (?v_2 (f13 ?v_0 ?v0))) (= (f3 f30 ?v0) (f5 (f6 f7 (f3 f24 (f13 f25 ?v_2))) (f5 (f6 f8 (f3 ?v_1 f23)) (f3 ?v_1 (f13 (f14 f15 f23) ?v_2)))))))))
(assert (forall ((?v0 S2)) (= (f3 f31 ?v0) (f5 (f6 f7 (f3 f24 ?v0)) (f3 (f9 f10 (f3 f12 (f13 (f14 f15 (f16 f17 (f18 f19 (f18 f20 f21)))) f22))) (f13 (f14 f15 f23) ?v0))))))
(assert (forall ((?v0 S2) (?v1 S3) (?v2 S2) (?v3 S2)) (= (f3 (f32 (f33 (f34 f35 ?v0) ?v1) ?v2) ?v3) (f5 (f6 f8 (f3 (f9 f10 (f3 f12 ?v0)) (f13 (f14 f15 ?v2) ?v3))) (f3 ?v1 ?v3)))))
(assert (forall ((?v0 S2) (?v1 S3) (?v2 S2) (?v3 S2)) (= (f3 (f32 (f33 (f34 f36 ?v0) ?v1) ?v2) ?v3) (f5 (f6 f7 (f3 ?v1 ?v3)) (f3 (f9 f10 (f3 f12 ?v0)) (f13 (f14 f15 ?v2) ?v3))))))
(assert (let ((?v_0 (f40 f41 f22))) (not (= (f37 (f38 f39 f30) ?v_0) (f37 (f38 f39 f4) ?v_0)))))
(assert (= (f3 f12 f41) f11))
(assert (forall ((?v0 S2)) (= (f3 (f9 f10 (f3 f12 ?v0)) ?v0) f11)))
(assert (forall ((?v0 S2) (?v1 S2) (?v2 S2)) (let ((?v_0 (f14 f15 (f16 f17 (f18 f19 (f18 f20 f21))))) (?v_1 (f14 f15 ?v1))) (= (f3 (f9 f10 (f3 f12 (f13 ?v_0 ?v0))) (f13 ?v_1 (f13 ?v_0 ?v2))) (f3 (f9 f10 (f3 f12 ?v0)) (f13 ?v_1 ?v2))))))
(assert (forall ((?v0 S2) (?v1 S3) (?v2 S2)) (= (f3 (f42 (f43 f44 ?v0) ?v1) ?v2) (f37 (f38 f39 (f32 (f33 (f34 f36 ?v0) ?v1) ?v2)) (f40 f41 ?v0)))))
(assert (forall ((?v0 S11) (?v1 S2)) (let ((?v_1 (f16 f17 (f18 f19 (f18 f20 f21)))) (?v_0 (f46 f47 ?v0))) (= (f45 ?v_0 (f13 f25 (f13 (f14 f15 ?v_1) ?v1))) (f18 (f48 f49 ?v0) (f45 (f46 f47 (f45 ?v_0 ?v1)) ?v_1))))))
(assert (forall ((?v0 S24) (?v1 S2)) (let ((?v_1 (f16 f17 (f18 f19 (f18 f20 f21)))) (?v_0 (f51 f52 ?v0))) (= (f50 ?v_0 (f13 f25 (f13 (f14 f15 ?v_1) ?v1))) (f53 (f54 f55 ?v0) (f50 (f51 f52 (f50 ?v_0 ?v1)) ?v_1))))))
(assert (forall ((?v0 S4) (?v1 S2)) (let ((?v_1 (f16 f17 (f18 f19 (f18 f20 f21)))) (?v_0 (f9 f10 ?v0))) (= (f3 ?v_0 (f13 f25 (f13 (f14 f15 ?v_1) ?v1))) (f5 (f6 f8 ?v0) (f3 (f9 f10 (f3 ?v_0 ?v1)) ?v_1))))))
(assert (forall ((?v0 S2) (?v1 S2)) (let ((?v_1 (f16 f17 (f18 f19 (f18 f20 f21)))) (?v_0 (f14 f56 ?v0))) (= (f13 ?v_0 (f13 f25 (f13 (f14 f15 ?v_1) ?v1))) (f13 (f14 f15 ?v0) (f13 (f14 f56 (f13 ?v_0 ?v1)) ?v_1))))))
(assert (forall ((?v0 S11) (?v1 S2)) (let ((?v_0 (f46 f47 ?v0))) (let ((?v_1 (f45 ?v_0 ?v1))) (= (f45 ?v_0 (f13 f25 (f13 (f14 f15 (f16 f17 (f18 f19 (f18 f20 f21)))) ?v1))) (f18 (f48 f49 ?v0) (f18 (f48 f49 ?v_1) ?v_1)))))))
(assert (forall ((?v0 S24) (?v1 S2)) (let ((?v_0 (f51 f52 ?v0))) (let ((?v_1 (f50 ?v_0 ?v1))) (= (f50 ?v_0 (f13 f25 (f13 (f14 f15 (f16 f17 (f18 f19 (f18 f20 f21)))) ?v1))) (f53 (f54 f55 ?v0) (f53 (f54 f55 ?v_1) ?v_1)))))))
(assert (forall ((?v0 S4) (?v1 S2)) (let ((?v_0 (f9 f10 ?v0))) (let ((?v_1 (f3 ?v_0 ?v1))) (= (f3 ?v_0 (f13 f25 (f13 (f14 f15 (f16 f17 (f18 f19 (f18 f20 f21)))) ?v1))) (f5 (f6 f8 ?v0) (f5 (f6 f8 ?v_1) ?v_1)))))))
(assert (forall ((?v0 S2) (?v1 S2)) (let ((?v_0 (f14 f56 ?v0))) (let ((?v_1 (f13 ?v_0 ?v1))) (= (f13 ?v_0 (f13 f25 (f13 (f14 f15 (f16 f17 (f18 f19 (f18 f20 f21)))) ?v1))) (f13 (f14 f15 ?v0) (f13 (f14 f15 ?v_1) ?v_1)))))))
(assert (forall ((?v0 S11) (?v1 S2)) (let ((?v_0 (f46 f47 ?v0))) (let ((?v_1 (f45 ?v_0 ?v1))) (= (f45 ?v_0 (f13 (f14 f15 (f16 f17 (f18 f19 (f18 f20 f21)))) ?v1)) (f18 (f48 f49 ?v_1) ?v_1))))))
(assert (forall ((?v0 S24) (?v1 S2)) (let ((?v_0 (f51 f52 ?v0))) (let ((?v_1 (f50 ?v_0 ?v1))) (= (f50 ?v_0 (f13 (f14 f15 (f16 f17 (f18 f19 (f18 f20 f21)))) ?v1)) (f53 (f54 f55 ?v_1) ?v_1))))))
(assert (forall ((?v0 S4) (?v1 S2)) (let ((?v_0 (f9 f10 ?v0))) (let ((?v_1 (f3 ?v_0 ?v1))) (= (f3 ?v_0 (f13 (f14 f15 (f16 f17 (f18 f19 (f18 f20 f21)))) ?v1)) (f5 (f6 f8 ?v_1) ?v_1))))))
(assert (forall ((?v0 S2) (?v1 S2)) (let ((?v_0 (f14 f56 ?v0))) (let ((?v_1 (f13 ?v_0 ?v1))) (= (f13 ?v_0 (f13 (f14 f15 (f16 f17 (f18 f19 (f18 f20 f21)))) ?v1)) (f13 (f14 f15 ?v_1) ?v_1))))))
(assert (forall ((?v0 S11)) (let ((?v_0 (f18 f57 ?v0))) (= (f45 (f46 f47 ?v_0) (f16 f17 (f18 f19 (f18 f20 f21)))) (f18 (f48 f49 ?v_0) ?v_0)))))
(assert (forall ((?v0 S11)) (let ((?v_0 (f58 f59 ?v0))) (= (f50 (f51 f52 ?v_0) (f16 f17 (f18 f19 (f18 f20 f21)))) (f53 (f54 f55 ?v_0) ?v_0)))))
(assert (forall ((?v0 S11)) (let ((?v_0 (f60 f61 ?v0))) (= (f3 (f9 f10 ?v_0) (f16 f17 (f18 f19 (f18 f20 f21)))) (f5 (f6 f8 ?v_0) ?v_0)))))
(assert (forall ((?v0 S11)) (let ((?v_0 (f16 f17 ?v0))) (= (f13 (f14 f56 ?v_0) (f16 f17 (f18 f19 (f18 f20 f21)))) (f13 (f14 f15 ?v_0) ?v_0)))))
(assert (forall ((?v0 S11) (?v1 S2)) (let ((?v_1 (f16 f17 (f18 f19 (f18 f20 f21)))) (?v_0 (f46 f47 ?v0))) (= (f45 ?v_0 (f13 (f14 f15 ?v_1) ?v1)) (f45 (f46 f47 (f45 ?v_0 ?v1)) ?v_1)))))
(assert (forall ((?v0 S24) (?v1 S2)) (let ((?v_1 (f16 f17 (f18 f19 (f18 f20 f21)))) (?v_0 (f51 f52 ?v0))) (= (f50 ?v_0 (f13 (f14 f15 ?v_1) ?v1)) (f50 (f51 f52 (f50 ?v_0 ?v1)) ?v_1)))))
(assert (forall ((?v0 S4) (?v1 S2)) (let ((?v_1 (f16 f17 (f18 f19 (f18 f20 f21)))) (?v_0 (f9 f10 ?v0))) (= (f3 ?v_0 (f13 (f14 f15 ?v_1) ?v1)) (f3 (f9 f10 (f3 ?v_0 ?v1)) ?v_1)))))
(assert (forall ((?v0 S2) (?v1 S2)) (let ((?v_1 (f16 f17 (f18 f19 (f18 f20 f21)))) (?v_0 (f14 f56 ?v0))) (= (f13 ?v_0 (f13 (f14 f15 ?v_1) ?v1)) (f13 (f14 f56 (f13 ?v_0 ?v1)) ?v_1)))))
(assert (= (f13 f25 (f13 f25 f41)) (f16 f17 (f18 f19 (f18 f20 f21)))))
(assert (= (f16 f17 (f18 f19 (f18 f20 f21))) (f13 f25 (f13 f25 f41))))
(assert (= (f13 (f14 f56 f28) (f16 f17 (f18 f19 (f18 f20 f21)))) f28))
(assert (= (f45 (f46 f47 f62) (f16 f17 (f18 f19 (f18 f20 f21)))) f62))
(assert (= (f3 (f9 f10 f11) (f16 f17 (f18 f19 (f18 f20 f21)))) f11))
(assert (= (f50 (f51 f52 f63) (f16 f17 (f18 f19 (f18 f20 f21)))) f63))
(assert (forall ((?v0 S11)) (= (f18 (f48 f49 ?v0) ?v0) (f45 (f46 f47 ?v0) (f16 f17 (f18 f19 (f18 f20 f21)))))))
(assert (forall ((?v0 S24)) (= (f53 (f54 f55 ?v0) ?v0) (f50 (f51 f52 ?v0) (f16 f17 (f18 f19 (f18 f20 f21)))))))
(assert (forall ((?v0 S4)) (= (f5 (f6 f8 ?v0) ?v0) (f3 (f9 f10 ?v0) (f16 f17 (f18 f19 (f18 f20 f21)))))))
(assert (forall ((?v0 S2)) (= (f13 (f14 f15 ?v0) ?v0) (f13 (f14 f56 ?v0) (f16 f17 (f18 f19 (f18 f20 f21)))))))
(assert (forall ((?v0 S11)) (= (f45 (f46 f47 ?v0) (f16 f17 (f18 f19 (f18 f20 f21)))) (f18 (f48 f49 ?v0) ?v0))))
(assert (forall ((?v0 S24)) (= (f50 (f51 f52 ?v0) (f16 f17 (f18 f19 (f18 f20 f21)))) (f53 (f54 f55 ?v0) ?v0))))
(assert (forall ((?v0 S4)) (= (f3 (f9 f10 ?v0) (f16 f17 (f18 f19 (f18 f20 f21)))) (f5 (f6 f8 ?v0) ?v0))))
(assert (forall ((?v0 S2)) (= (f13 (f14 f56 ?v0) (f16 f17 (f18 f19 (f18 f20 f21)))) (f13 (f14 f15 ?v0) ?v0))))
(assert (= (f3 (f9 f10 f64) (f16 f17 (f18 f19 (f18 f20 f21)))) f64))
(assert (= (f45 (f46 f47 f65) (f16 f17 (f18 f19 (f18 f20 f21)))) f65))
(assert (= (f13 (f14 f56 f41) (f16 f17 (f18 f19 (f18 f20 f21)))) f41))
(assert (= (f50 (f51 f52 f66) (f16 f17 (f18 f19 (f18 f20 f21)))) f66))
(assert (forall ((?v0 S11)) (= (f45 (f46 f47 ?v0) f28) ?v0)))
(assert (forall ((?v0 S24)) (= (f50 (f51 f52 ?v0) f28) ?v0)))
(assert (forall ((?v0 S4)) (= (f3 (f9 f10 ?v0) f28) ?v0)))
(assert (forall ((?v0 S2)) (= (f13 (f14 f56 ?v0) f28) ?v0)))
(assert (forall ((?v0 S2)) (not (= (f3 f12 ?v0) f64))))
(assert (= (f16 f17 (f18 f20 f21)) f28))
(assert (= f28 (f16 f17 (f18 f20 f21))))
(assert (= (f3 f12 f28) f11))
(assert (forall ((?v0 S11) (?v1 S11) (?v2 S11) (?v3 S11)) (let ((?v_0 (f48 f49 ?v0))) (= (f18 (f48 f49 (f18 ?v_0 ?v1)) (f18 (f48 f49 ?v2) ?v3)) (f18 (f48 f49 (f18 ?v_0 ?v2)) (f18 (f48 f49 ?v1) ?v3))))))
(assert (forall ((?v0 S24) (?v1 S24) (?v2 S24) (?v3 S24)) (let ((?v_0 (f54 f55 ?v0))) (= (f53 (f54 f55 (f53 ?v_0 ?v1)) (f53 (f54 f55 ?v2) ?v3)) (f53 (f54 f55 (f53 ?v_0 ?v2)) (f53 (f54 f55 ?v1) ?v3))))))
(assert (forall ((?v0 S4) (?v1 S4) (?v2 S4) (?v3 S4)) (let ((?v_0 (f6 f8 ?v0))) (= (f5 (f6 f8 (f5 ?v_0 ?v1)) (f5 (f6 f8 ?v2) ?v3)) (f5 (f6 f8 (f5 ?v_0 ?v2)) (f5 (f6 f8 ?v1) ?v3))))))
(assert (forall ((?v0 S2) (?v1 S2) (?v2 S2) (?v3 S2)) (let ((?v_0 (f14 f15 ?v0))) (= (f13 (f14 f15 (f13 ?v_0 ?v1)) (f13 (f14 f15 ?v2) ?v3)) (f13 (f14 f15 (f13 ?v_0 ?v2)) (f13 (f14 f15 ?v1) ?v3))))))
(assert (forall ((?v0 S11) (?v1 S11) (?v2 S11) (?v3 S11)) (let ((?v_1 (f48 f49 (f18 (f48 f49 ?v0) ?v1))) (?v_0 (f48 f49 ?v2))) (= (f18 ?v_1 (f18 ?v_0 ?v3)) (f18 ?v_0 (f18 ?v_1 ?v3))))))
(assert (forall ((?v0 S24) (?v1 S24) (?v2 S24) (?v3 S24)) (let ((?v_1 (f54 f55 (f53 (f54 f55 ?v0) ?v1))) (?v_0 (f54 f55 ?v2))) (= (f53 ?v_1 (f53 ?v_0 ?v3)) (f53 ?v_0 (f53 ?v_1 ?v3))))))
(assert (forall ((?v0 S4) (?v1 S4) (?v2 S4) (?v3 S4)) (let ((?v_1 (f6 f8 (f5 (f6 f8 ?v0) ?v1))) (?v_0 (f6 f8 ?v2))) (= (f5 ?v_1 (f5 ?v_0 ?v3)) (f5 ?v_0 (f5 ?v_1 ?v3))))))
(assert (forall ((?v0 S2) (?v1 S2) (?v2 S2) (?v3 S2)) (let ((?v_1 (f14 f15 (f13 (f14 f15 ?v0) ?v1))) (?v_0 (f14 f15 ?v2))) (= (f13 ?v_1 (f13 ?v_0 ?v3)) (f13 ?v_0 (f13 ?v_1 ?v3))))))
(assert (forall ((?v0 S11) (?v1 S11) (?v2 S11) (?v3 S11)) (let ((?v_0 (f48 f49 ?v0)) (?v_1 (f18 (f48 f49 ?v2) ?v3))) (= (f18 (f48 f49 (f18 ?v_0 ?v1)) ?v_1) (f18 ?v_0 (f18 (f48 f49 ?v1) ?v_1))))))
(assert (forall ((?v0 S24) (?v1 S24) (?v2 S24) (?v3 S24)) (let ((?v_0 (f54 f55 ?v0)) (?v_1 (f53 (f54 f55 ?v2) ?v3))) (= (f53 (f54 f55 (f53 ?v_0 ?v1)) ?v_1) (f53 ?v_0 (f53 (f54 f55 ?v1) ?v_1))))))
(assert (forall ((?v0 S4) (?v1 S4) (?v2 S4) (?v3 S4)) (let ((?v_0 (f6 f8 ?v0)) (?v_1 (f5 (f6 f8 ?v2) ?v3))) (= (f5 (f6 f8 (f5 ?v_0 ?v1)) ?v_1) (f5 ?v_0 (f5 (f6 f8 ?v1) ?v_1))))))
(assert (forall ((?v0 S2) (?v1 S2) (?v2 S2) (?v3 S2)) (let ((?v_0 (f14 f15 ?v0)) (?v_1 (f13 (f14 f15 ?v2) ?v3))) (= (f13 (f14 f15 (f13 ?v_0 ?v1)) ?v_1) (f13 ?v_0 (f13 (f14 f15 ?v1) ?v_1))))))
(assert (forall ((?v0 S11) (?v1 S11) (?v2 S11)) (let ((?v_0 (f48 f49 ?v0))) (= (f18 (f48 f49 (f18 ?v_0 ?v1)) ?v2) (f18 (f48 f49 (f18 ?v_0 ?v2)) ?v1)))))
(assert (forall ((?v0 S24) (?v1 S24) (?v2 S24)) (let ((?v_0 (f54 f55 ?v0))) (= (f53 (f54 f55 (f53 ?v_0 ?v1)) ?v2) (f53 (f54 f55 (f53 ?v_0 ?v2)) ?v1)))))
(assert (forall ((?v0 S4) (?v1 S4) (?v2 S4)) (let ((?v_0 (f6 f8 ?v0))) (= (f5 (f6 f8 (f5 ?v_0 ?v1)) ?v2) (f5 (f6 f8 (f5 ?v_0 ?v2)) ?v1)))))
(assert (forall ((?v0 S2) (?v1 S2) (?v2 S2)) (let ((?v_0 (f14 f15 ?v0))) (= (f13 (f14 f15 (f13 ?v_0 ?v1)) ?v2) (f13 (f14 f15 (f13 ?v_0 ?v2)) ?v1)))))
(assert (forall ((?v0 S11) (?v1 S11) (?v2 S11)) (let ((?v_0 (f48 f49 ?v0))) (= (f18 (f48 f49 (f18 ?v_0 ?v1)) ?v2) (f18 ?v_0 (f18 (f48 f49 ?v1) ?v2))))))
(assert (forall ((?v0 S24) (?v1 S24) (?v2 S24)) (let ((?v_0 (f54 f55 ?v0))) (= (f53 (f54 f55 (f53 ?v_0 ?v1)) ?v2) (f53 ?v_0 (f53 (f54 f55 ?v1) ?v2))))))
(assert (forall ((?v0 S4) (?v1 S4) (?v2 S4)) (let ((?v_0 (f6 f8 ?v0))) (= (f5 (f6 f8 (f5 ?v_0 ?v1)) ?v2) (f5 ?v_0 (f5 (f6 f8 ?v1) ?v2))))))
(assert (forall ((?v0 S2) (?v1 S2) (?v2 S2)) (let ((?v_0 (f14 f15 ?v0))) (= (f13 (f14 f15 (f13 ?v_0 ?v1)) ?v2) (f13 ?v_0 (f13 (f14 f15 ?v1) ?v2))))))
(assert (forall ((?v0 S11) (?v1 S11) (?v2 S11)) (let ((?v_0 (f48 f49 ?v0))) (= (f18 ?v_0 (f18 (f48 f49 ?v1) ?v2)) (f18 (f48 f49 (f18 ?v_0 ?v1)) ?v2)))))
(assert (forall ((?v0 S24) (?v1 S24) (?v2 S24)) (let ((?v_0 (f54 f55 ?v0))) (= (f53 ?v_0 (f53 (f54 f55 ?v1) ?v2)) (f53 (f54 f55 (f53 ?v_0 ?v1)) ?v2)))))
(assert (forall ((?v0 S4) (?v1 S4) (?v2 S4)) (let ((?v_0 (f6 f8 ?v0))) (= (f5 ?v_0 (f5 (f6 f8 ?v1) ?v2)) (f5 (f6 f8 (f5 ?v_0 ?v1)) ?v2)))))
(assert (forall ((?v0 S2) (?v1 S2) (?v2 S2)) (let ((?v_0 (f14 f15 ?v0))) (= (f13 ?v_0 (f13 (f14 f15 ?v1) ?v2)) (f13 (f14 f15 (f13 ?v_0 ?v1)) ?v2)))))
(assert (forall ((?v0 S11) (?v1 S11) (?v2 S11)) (let ((?v_1 (f48 f49 ?v0)) (?v_0 (f48 f49 ?v1))) (= (f18 ?v_1 (f18 ?v_0 ?v2)) (f18 ?v_0 (f18 ?v_1 ?v2))))))
(assert (forall ((?v0 S24) (?v1 S24) (?v2 S24)) (let ((?v_1 (f54 f55 ?v0)) (?v_0 (f54 f55 ?v1))) (= (f53 ?v_1 (f53 ?v_0 ?v2)) (f53 ?v_0 (f53 ?v_1 ?v2))))))
(assert (forall ((?v0 S4) (?v1 S4) (?v2 S4)) (let ((?v_1 (f6 f8 ?v0)) (?v_0 (f6 f8 ?v1))) (= (f5 ?v_1 (f5 ?v_0 ?v2)) (f5 ?v_0 (f5 ?v_1 ?v2))))))
(assert (forall ((?v0 S2) (?v1 S2) (?v2 S2)) (let ((?v_1 (f14 f15 ?v0)) (?v_0 (f14 f15 ?v1))) (= (f13 ?v_1 (f13 ?v_0 ?v2)) (f13 ?v_0 (f13 ?v_1 ?v2))))))
(assert (forall ((?v0 S11) (?v1 S11)) (= (f18 (f48 f49 ?v0) ?v1) (f18 (f48 f49 ?v1) ?v0))))
(assert (forall ((?v0 S24) (?v1 S24)) (= (f53 (f54 f55 ?v0) ?v1) (f53 (f54 f55 ?v1) ?v0))))
(assert (forall ((?v0 S4) (?v1 S4)) (= (f5 (f6 f8 ?v0) ?v1) (f5 (f6 f8 ?v1) ?v0))))
(assert (forall ((?v0 S2) (?v1 S2)) (= (f13 (f14 f15 ?v0) ?v1) (f13 (f14 f15 ?v1) ?v0))))
(assert (forall ((?v0 S4)) (= (f5 (f6 f8 ?v0) f64) f64)))
(assert (forall ((?v0 S11)) (= (f18 (f48 f49 ?v0) f65) f65)))
(assert (forall ((?v0 S2)) (= (f13 (f14 f15 ?v0) f41) f41)))
(assert (forall ((?v0 S24)) (= (f53 (f54 f55 ?v0) f66) f66)))
(assert (forall ((?v0 S4)) (= (f5 (f6 f8 f64) ?v0) f64)))
(assert (forall ((?v0 S11)) (= (f18 (f48 f49 f65) ?v0) f65)))
(assert (forall ((?v0 S2)) (= (f13 (f14 f15 f41) ?v0) f41)))
(assert (forall ((?v0 S24)) (= (f53 (f54 f55 f66) ?v0) f66)))
(assert (forall ((?v0 S2)) (= (f13 (f14 f15 ?v0) f28) ?v0)))
(assert (forall ((?v0 S11)) (= (f18 (f48 f49 ?v0) f62) ?v0)))
(assert (forall ((?v0 S4)) (= (f5 (f6 f8 ?v0) f11) ?v0)))
(assert (forall ((?v0 S24)) (= (f53 (f54 f55 ?v0) f63) ?v0)))
(assert (forall ((?v0 S2)) (= (f13 (f14 f15 f28) ?v0) ?v0)))
(assert (forall ((?v0 S11)) (= (f18 (f48 f49 f62) ?v0) ?v0)))
(assert (forall ((?v0 S4)) (= (f5 (f6 f8 f11) ?v0) ?v0)))
(assert (forall ((?v0 S24)) (= (f53 (f54 f55 f63) ?v0) ?v0)))
(assert (forall ((?v0 S11) (?v1 S11) (?v2 S2)) (= (f45 (f46 f47 (f18 (f48 f49 ?v0) ?v1)) ?v2) (f18 (f48 f49 (f45 (f46 f47 ?v0) ?v2)) (f45 (f46 f47 ?v1) ?v2)))))
(assert (forall ((?v0 S24) (?v1 S24) (?v2 S2)) (= (f50 (f51 f52 (f53 (f54 f55 ?v0) ?v1)) ?v2) (f53 (f54 f55 (f50 (f51 f52 ?v0) ?v2)) (f50 (f51 f52 ?v1) ?v2)))))
(assert (forall ((?v0 S4) (?v1 S4) (?v2 S2)) (= (f3 (f9 f10 (f5 (f6 f8 ?v0) ?v1)) ?v2) (f5 (f6 f8 (f3 (f9 f10 ?v0) ?v2)) (f3 (f9 f10 ?v1) ?v2)))))
(assert (forall ((?v0 S2) (?v1 S2) (?v2 S2)) (= (f13 (f14 f56 (f13 (f14 f15 ?v0) ?v1)) ?v2) (f13 (f14 f15 (f13 (f14 f56 ?v0) ?v2)) (f13 (f14 f56 ?v1) ?v2)))))
(assert (forall ((?v0 S11) (?v1 S2) (?v2 S2)) (let ((?v_0 (f46 f47 ?v0))) (= (f45 (f46 f47 (f45 ?v_0 ?v1)) ?v2) (f45 ?v_0 (f13 (f14 f15 ?v1) ?v2))))))
(assert (forall ((?v0 S24) (?v1 S2) (?v2 S2)) (let ((?v_0 (f51 f52 ?v0))) (= (f50 (f51 f52 (f50 ?v_0 ?v1)) ?v2) (f50 ?v_0 (f13 (f14 f15 ?v1) ?v2))))))
(assert (forall ((?v0 S4) (?v1 S2) (?v2 S2)) (let ((?v_0 (f9 f10 ?v0))) (= (f3 (f9 f10 (f3 ?v_0 ?v1)) ?v2) (f3 ?v_0 (f13 (f14 f15 ?v1) ?v2))))))
(assert (forall ((?v0 S2) (?v1 S2) (?v2 S2)) (let ((?v_0 (f14 f56 ?v0))) (= (f13 (f14 f56 (f13 ?v_0 ?v1)) ?v2) (f13 ?v_0 (f13 (f14 f15 ?v1) ?v2))))))
(assert (= f64 (f60 f61 f21)))
(assert (= f65 (f18 f57 f21)))
(assert (= f66 (f58 f59 f21)))
(assert (forall ((?v0 S11) (?v1 S2)) (let ((?v_0 (f46 f47 ?v0))) (= (f18 (f48 f49 (f45 ?v_0 ?v1)) ?v0) (f45 ?v_0 (f13 f25 ?v1))))))
(assert (forall ((?v0 S24) (?v1 S2)) (let ((?v_0 (f51 f52 ?v0))) (= (f53 (f54 f55 (f50 ?v_0 ?v1)) ?v0) (f50 ?v_0 (f13 f25 ?v1))))))
(assert (forall ((?v0 S4) (?v1 S2)) (let ((?v_0 (f9 f10 ?v0))) (= (f5 (f6 f8 (f3 ?v_0 ?v1)) ?v0) (f3 ?v_0 (f13 f25 ?v1))))))
(assert (forall ((?v0 S2) (?v1 S2)) (let ((?v_0 (f14 f56 ?v0))) (= (f13 (f14 f15 (f13 ?v_0 ?v1)) ?v0) (f13 ?v_0 (f13 f25 ?v1))))))
(assert (forall ((?v0 S11) (?v1 S2)) (let ((?v_0 (f46 f47 ?v0))) (= (f18 (f48 f49 ?v0) (f45 ?v_0 ?v1)) (f45 ?v_0 (f13 f25 ?v1))))))
(assert (forall ((?v0 S24) (?v1 S2)) (let ((?v_0 (f51 f52 ?v0))) (= (f53 (f54 f55 ?v0) (f50 ?v_0 ?v1)) (f50 ?v_0 (f13 f25 ?v1))))))
(assert (forall ((?v0 S4) (?v1 S2)) (let ((?v_0 (f9 f10 ?v0))) (= (f5 (f6 f8 ?v0) (f3 ?v_0 ?v1)) (f3 ?v_0 (f13 f25 ?v1))))))
(assert (forall ((?v0 S2) (?v1 S2)) (let ((?v_0 (f14 f56 ?v0))) (= (f13 (f14 f15 ?v0) (f13 ?v_0 ?v1)) (f13 ?v_0 (f13 f25 ?v1))))))
(assert (forall ((?v0 S11) (?v1 S2)) (let ((?v_0 (f46 f47 ?v0))) (= (f45 ?v_0 (f13 f25 ?v1)) (f18 (f48 f49 ?v0) (f45 ?v_0 ?v1))))))
(assert (forall ((?v0 S24) (?v1 S2)) (let ((?v_0 (f51 f52 ?v0))) (= (f50 ?v_0 (f13 f25 ?v1)) (f53 (f54 f55 ?v0) (f50 ?v_0 ?v1))))))
(assert (forall ((?v0 S4) (?v1 S2)) (let ((?v_0 (f9 f10 ?v0))) (= (f3 ?v_0 (f13 f25 ?v1)) (f5 (f6 f8 ?v0) (f3 ?v_0 ?v1))))))
(assert (forall ((?v0 S2) (?v1 S2)) (let ((?v_0 (f14 f56 ?v0))) (= (f13 ?v_0 (f13 f25 ?v1)) (f13 (f14 f15 ?v0) (f13 ?v_0 ?v1))))))
(assert (forall ((?v0 S2)) (= (f13 (f14 f56 ?v0) f41) f28)))
(assert (forall ((?v0 S11)) (= (f45 (f46 f47 ?v0) f41) f62)))
(assert (forall ((?v0 S4)) (= (f3 (f9 f10 ?v0) f41) f11)))
(assert (forall ((?v0 S24)) (= (f50 (f51 f52 ?v0) f41) f63)))
(assert (= (f16 f17 f21) f41))
(assert (= f41 (f16 f17 f21)))
(assert (= f62 (f18 f57 (f18 f20 f21))))
(assert (= f11 (f60 f61 (f18 f20 f21))))
(assert (= f63 (f58 f59 (f18 f20 f21))))
(assert (forall ((?v0 S11)) (= (f45 (f46 f47 ?v0) (f16 f17 (f18 f20 (f18 f20 f21)))) (f18 (f48 f49 (f18 (f48 f49 ?v0) ?v0)) ?v0))))
(assert (forall ((?v0 S24)) (= (f50 (f51 f52 ?v0) (f16 f17 (f18 f20 (f18 f20 f21)))) (f53 (f54 f55 (f53 (f54 f55 ?v0) ?v0)) ?v0))))
(assert (forall ((?v0 S4)) (= (f3 (f9 f10 ?v0) (f16 f17 (f18 f20 (f18 f20 f21)))) (f5 (f6 f8 (f5 (f6 f8 ?v0) ?v0)) ?v0))))
(assert (forall ((?v0 S2)) (= (f13 (f14 f56 ?v0) (f16 f17 (f18 f20 (f18 f20 f21)))) (f13 (f14 f15 (f13 (f14 f15 ?v0) ?v0)) ?v0))))
(assert (= (f16 f17 (f18 f20 (f18 f20 f21))) (f13 f25 (f13 f25 (f13 f25 f41)))))
(assert (= (f16 f17 (f18 f20 f21)) (f13 f25 f41)))
(assert (forall ((?v0 S4)) (= (= (f3 (f9 f10 ?v0) (f16 f17 (f18 f19 (f18 f20 f21)))) f64) (= ?v0 f64))))
(assert (forall ((?v0 S11)) (= (= (f45 (f46 f47 ?v0) (f16 f17 (f18 f19 (f18 f20 f21)))) f65) (= ?v0 f65))))
(assert (forall ((?v0 S24)) (= (= (f50 (f51 f52 ?v0) (f16 f17 (f18 f19 (f18 f20 f21)))) f66) (= ?v0 f66))))
(assert (forall ((?v0 S3) (?v1 S2)) (let ((?v_0 (f38 f39 ?v0))) (=> (= (f3 ?v0 f41) f64) (= (f37 ?v_0 (f40 (f13 f25 f41) ?v1)) (f37 ?v_0 (f40 f41 ?v1)))))))
(assert (forall ((?v0 S21) (?v1 S2)) (let ((?v_0 (f68 f69 ?v0))) (=> (= (f45 ?v0 f41) f65) (= (f67 ?v_0 (f40 (f13 f25 f41) ?v1)) (f67 ?v_0 (f40 f41 ?v1)))))))
(assert (forall ((?v0 S8) (?v1 S2)) (let ((?v_0 (f71 f72 ?v0))) (=> (= (f13 ?v0 f41) f41) (= (f70 ?v_0 (f40 (f13 f25 f41) ?v1)) (f70 ?v_0 (f40 f41 ?v1)))))))
(assert (forall ((?v0 S25) (?v1 S2)) (let ((?v_0 (f74 f75 ?v0))) (=> (= (f50 ?v0 f41) f66) (= (f73 ?v_0 (f40 (f13 f25 f41) ?v1)) (f73 ?v_0 (f40 f41 ?v1)))))))
(assert (forall ((?v0 S11)) (let ((?v_0 (f16 f17 ?v0))) (= (f13 (f14 f56 f41) ?v_0) (ite (= ?v_0 f41) f28 f41)))))
(assert (forall ((?v0 S11)) (let ((?v_0 (f16 f17 ?v0))) (= (f45 (f46 f47 f65) ?v_0) (ite (= ?v_0 f41) f62 f65)))))
(assert (forall ((?v0 S11)) (let ((?v_0 (f16 f17 ?v0))) (= (f3 (f9 f10 f64) ?v_0) (ite (= ?v_0 f41) f11 f64)))))
(assert (forall ((?v0 S11)) (let ((?v_0 (f16 f17 ?v0))) (= (f50 (f51 f52 f66) ?v_0) (ite (= ?v_0 f41) f63 f66)))))
(assert (forall ((?v0 S2) (?v1 S3) (?v2 S2)) (= (f3 (f42 (f43 f76 ?v0) ?v1) ?v2) (f37 (f38 f39 (f32 (f33 (f34 f35 ?v0) ?v1) ?v2)) (f40 f41 ?v0)))))
(assert (let ((?v_0 (f40 f41 f22))) (= (f37 (f38 f39 f31) (f40 f41 (f13 (f14 f15 (f16 f17 (f18 f19 (f18 f20 f21)))) f22))) (f5 (f6 f77 (f37 (f38 f39 f29) ?v_0)) (f37 (f38 f39 f26) ?v_0)))))
(assert (forall ((?v0 S24)) (let ((?v_0 (f18 f19 (f18 f20 f21)))) (let ((?v_1 (f16 f17 ?v_0))) (= (f53 (f54 f55 (f58 f59 (f18 f19 ?v_0))) (f50 (f51 f52 ?v0) ?v_1)) (f50 (f51 f52 (f53 (f54 f55 (f58 f59 ?v_0)) ?v0)) ?v_1))))))
(assert (forall ((?v0 S24)) (= (f53 (f54 f78 ?v0) (f58 f59 (f18 f20 f21))) ?v0)))
(assert (forall ((?v0 S4)) (= (f5 (f6 f7 ?v0) (f60 f61 (f18 f20 f21))) ?v0)))
(assert (forall ((?v0 S24)) (= (f53 (f54 f78 ?v0) (f58 f59 (f18 f20 f21))) ?v0)))
(assert (forall ((?v0 S4)) (= (f5 (f6 f7 ?v0) (f60 f61 (f18 f20 f21))) ?v0)))
(assert (forall ((?v0 S4) (?v1 S11)) (let ((?v_0 (f16 f17 ?v1))) (= (= (f3 (f9 f10 ?v0) ?v_0) f64) (and (= ?v0 f64) (not (= ?v_0 f41)))))))
(assert (forall ((?v0 S11) (?v1 S11)) (let ((?v_0 (f16 f17 ?v1))) (= (= (f45 (f46 f47 ?v0) ?v_0) f65) (and (= ?v0 f65) (not (= ?v_0 f41)))))))
(assert (forall ((?v0 S2) (?v1 S11)) (let ((?v_0 (f16 f17 ?v1))) (= (= (f13 (f14 f56 ?v0) ?v_0) f41) (and (= ?v0 f41) (not (= ?v_0 f41)))))))
(assert (forall ((?v0 S24) (?v1 S11)) (let ((?v_0 (f16 f17 ?v1))) (= (= (f50 (f51 f52 ?v0) ?v_0) f66) (and (= ?v0 f66) (not (= ?v_0 f41)))))))
(assert (= (f16 f17 (f18 f20 f21)) f28))
(assert (= (f18 f57 (f18 f20 f21)) f62))
(assert (= (f60 f61 (f18 f20 f21)) f11))
(assert (= (f58 f59 (f18 f20 f21)) f63))
(assert (= (f18 f57 (f18 f20 f21)) f62))
(assert (= (f60 f61 (f18 f20 f21)) f11))
(assert (= (f58 f59 (f18 f20 f21)) f63))
(assert (forall ((?v0 S11) (?v1 S11)) (= (f18 f57 (f18 (f48 f79 ?v0) ?v1)) (f18 (f48 f79 (f18 f57 ?v0)) (f18 f57 ?v1)))))
(assert (forall ((?v0 S11) (?v1 S11)) (= (f60 f61 (f18 (f48 f79 ?v0) ?v1)) (f5 (f6 f77 (f60 f61 ?v0)) (f60 f61 ?v1)))))
(assert (forall ((?v0 S11) (?v1 S11)) (= (f58 f59 (f18 (f48 f79 ?v0) ?v1)) (f53 (f54 f80 (f58 f59 ?v0)) (f58 f59 ?v1)))))
(assert (forall ((?v0 S11) (?v1 S11)) (= (f18 (f48 f79 ?v0) ?v1) (f18 (f48 f79 ?v1) ?v0))))
(assert (forall ((?v0 S2) (?v1 S2)) (= (f13 (f14 f27 ?v0) ?v1) (f13 (f14 f27 ?v1) ?v0))))
(assert (forall ((?v0 S4) (?v1 S4)) (= (f5 (f6 f77 ?v0) ?v1) (f5 (f6 f77 ?v1) ?v0))))
(assert (forall ((?v0 S24) (?v1 S24)) (= (f53 (f54 f80 ?v0) ?v1) (f53 (f54 f80 ?v1) ?v0))))
(assert (forall ((?v0 S11) (?v1 S11) (?v2 S11)) (let ((?v_1 (f48 f79 ?v0)) (?v_0 (f48 f79 ?v1))) (= (f18 ?v_1 (f18 ?v_0 ?v2)) (f18 ?v_0 (f18 ?v_1 ?v2))))))
(assert (forall ((?v0 S2) (?v1 S2) (?v2 S2)) (let ((?v_1 (f14 f27 ?v0)) (?v_0 (f14 f27 ?v1))) (= (f13 ?v_1 (f13 ?v_0 ?v2)) (f13 ?v_0 (f13 ?v_1 ?v2))))))
(assert (forall ((?v0 S4) (?v1 S4) (?v2 S4)) (let ((?v_1 (f6 f77 ?v0)) (?v_0 (f6 f77 ?v1))) (= (f5 ?v_1 (f5 ?v_0 ?v2)) (f5 ?v_0 (f5 ?v_1 ?v2))))))
(assert (forall ((?v0 S24) (?v1 S24) (?v2 S24)) (let ((?v_1 (f54 f80 ?v0)) (?v_0 (f54 f80 ?v1))) (= (f53 ?v_1 (f53 ?v_0 ?v2)) (f53 ?v_0 (f53 ?v_1 ?v2))))))
(assert (forall ((?v0 S11) (?v1 S11) (?v2 S11)) (let ((?v_0 (f48 f79 ?v0))) (= (f18 ?v_0 (f18 (f48 f79 ?v1) ?v2)) (f18 (f48 f79 (f18 ?v_0 ?v1)) ?v2)))))
(assert (forall ((?v0 S2) (?v1 S2) (?v2 S2)) (let ((?v_0 (f14 f27 ?v0))) (= (f13 ?v_0 (f13 (f14 f27 ?v1) ?v2)) (f13 (f14 f27 (f13 ?v_0 ?v1)) ?v2)))))
(assert (forall ((?v0 S4) (?v1 S4) (?v2 S4)) (let ((?v_0 (f6 f77 ?v0))) (= (f5 ?v_0 (f5 (f6 f77 ?v1) ?v2)) (f5 (f6 f77 (f5 ?v_0 ?v1)) ?v2)))))
(assert (forall ((?v0 S24) (?v1 S24) (?v2 S24)) (let ((?v_0 (f54 f80 ?v0))) (= (f53 ?v_0 (f53 (f54 f80 ?v1) ?v2)) (f53 (f54 f80 (f53 ?v_0 ?v1)) ?v2)))))
(assert (forall ((?v0 S11) (?v1 S2) (?v2 S2)) (let ((?v_0 (f46 f47 ?v0))) (= (f45 ?v_0 (f13 (f14 f27 ?v1) ?v2)) (f18 (f48 f49 (f45 ?v_0 ?v1)) (f45 ?v_0 ?v2))))))
(assert (forall ((?v0 S11) (?v1 S11)) (= (f18 (f48 f79 (f18 f57 ?v0)) (f18 f57 ?v1)) (f18 f57 (f18 (f48 f79 ?v0) ?v1)))))
(assert (forall ((?v0 S11) (?v1 S11)) (= (f5 (f6 f77 (f60 f61 ?v0)) (f60 f61 ?v1)) (f60 f61 (f18 (f48 f79 ?v0) ?v1)))))
(assert (forall ((?v0 S11) (?v1 S11)) (= (f53 (f54 f80 (f58 f59 ?v0)) (f58 f59 ?v1)) (f58 f59 (f18 (f48 f79 ?v0) ?v1)))))
(assert (forall ((?v0 S11) (?v1 S11) (?v2 S11)) (= (f18 (f48 f79 (f18 f57 ?v0)) (f18 (f48 f79 (f18 f57 ?v1)) ?v2)) (f18 (f48 f79 (f18 f57 (f18 (f48 f79 ?v0) ?v1))) ?v2))))
(assert (forall ((?v0 S11) (?v1 S11) (?v2 S4)) (= (f5 (f6 f77 (f60 f61 ?v0)) (f5 (f6 f77 (f60 f61 ?v1)) ?v2)) (f5 (f6 f77 (f60 f61 (f18 (f48 f79 ?v0) ?v1))) ?v2))))
(assert (forall ((?v0 S11) (?v1 S11) (?v2 S24)) (= (f53 (f54 f80 (f58 f59 ?v0)) (f53 (f54 f80 (f58 f59 ?v1)) ?v2)) (f53 (f54 f80 (f58 f59 (f18 (f48 f79 ?v0) ?v1))) ?v2))))
(check-sat)
(exit)
